p edge 51 214
e AL FL
e AL GA
e AL MS
e AL TN
e AR LA
e AR MO
e AR MS
e AR OK
e AR TN
e AR TX
e AZ CA
e AZ NM
e AZ NV
e AZ UT
e CA AZ
e CA NV
e CA OR
e CO KS
e CO NE
e CO NM
e CO OK
e CO UT
e CO WY
e CT MA
e CT NY
e CT RI
e DC MD
e DC VA
e DE MD
e DE NJ
e DE PA
e FL AL
e FL GA
e GA AL
e GA FL
e GA NC
e GA SC
e GA TN
e IA IL
e IA MN
e IA MO
e IA NE
e IA SD
e IA WI
e ID MT
e ID NV
e ID OR
e ID UT
e ID WA
e ID WY
e IL IA
e IL IN
e IL KY
e IL MO
e IL WI
e IN IL
e IN KY
e IN MI
e IN OH
e KS CO
e KS MO
e KS NE
e KS OK
e KY IL
e KY IN
e KY MO
e KY OH
e KY TN
e KY VA
e KY WV
e LA AR
e LA MS
e LA TX
e MA CT
e MA NH
e MA NY
e MA RI
e MA VT
e MD DC
e MD DE
e MD PA
e MD VA
e MD WV
e ME NH
e MI IN
e MI OH
e MI WI
e MN IA
e MN ND
e MN SD
e MN WI
e MO AR
e MO IA
e MO IL
e MO KS
e MO KY
e MO NE
e MO OK
e MO TN
e MS AL
e MS AR
e MS LA
e MS TN
e MT ID
e MT ND
e MT SD
e MT WY
e NC GA
e NC SC
e NC TN
e NC VA
e ND MN
e ND MT
e ND SD
e NE CO
e NE IA
e NE KS
e NE MO
e NE SD
e NE WY
e NH MA
e NH ME
e NH VT
e NJ DE
e NJ NY
e NJ PA
e NM AZ
e NM CO
e NM OK
e NM TX
e NV AZ
e NV CA
e NV ID
e NV OR
e NV UT
e NY CT
e NY MA
e NY NJ
e NY PA
e NY VT
e OH IN
e OH KY
e OH MI
e OH PA
e OH WV
e OK AR
e OK CO
e OK KS
e OK MO
e OK NM
e OK TX
e OR CA
e OR ID
e OR NV
e OR WA
e PA DE
e PA MD
e PA NJ
e PA NY
e PA OH
e PA WV
e RI CT
e RI MA
e SC GA
e SC NC
e SD IA
e SD MN
e SD MT
e SD ND
e SD NE
e SD WY
e TN AL
e TN AR
e TN GA
e TN KY
e TN MO
e TN MS
e TN NC
e TN VA
e TX AR
e TX LA
e TX NM
e TX OK
e UT AZ
e UT CO
e UT ID
e UT NV
e UT WY
e VA DC
e VA KY
e VA MD
e VA NC
e VA TN
e VA WV
e VT MA
e VT NH
e VT NY
e WA ID
e WA OR
e WI IA
e WI IL
e WI MI
e WI MN
e WV KY
e WV MD
e WV OH
e WV PA
e WV VA
e WY CO
e WY ID
e WY MT
e WY NE
e WY SD
e WY UT
n AK 0
n HI 0
